This is Ipopt version 3.14.14, running with linear solver MUMPS 5.6.2.

Number of nonzeros in equality constraint Jacobian...:        0
Number of nonzeros in inequality constraint Jacobian.:      144
Number of nonzeros in Lagrangian Hessian.............:        0

Total number of variables............................:       12
                     variables with only lower bounds:        0
                variables with lower and upper bounds:       12
                     variables with only upper bounds:        0
Total number of equality constraints.................:        0
Total number of inequality constraints...............:       12
        inequality constraints with only lower bounds:        0
   inequality constraints with lower and upper bounds:        0
        inequality constraints with only upper bounds:       12

iter    objective    inf_pr   inf_du lg(mu)  ||d||  lg(rg) alpha_du alpha_pr  ls
   0  3.1424652e-02 0.00e+00 9.65e-01   0.0 0.00e+00    -  0.00e+00 0.00e+00   0
   1  3.1186555e-02 0.00e+00 3.05e-02  -5.6 6.72e-03    -  9.70e-01 1.00e+00f  1
   2  1.5506993e-02 0.00e+00 5.64e-02  -2.8 5.30e-01    -  4.87e-01 1.00e+00f  1
   3  8.0536165e-03 0.00e+00 9.19e-02  -2.7 1.67e+00    -  9.35e-01 1.00e+00h  1
   4  6.6034393e-03 0.00e+00 8.53e-03  -8.3 9.33e-01    -  7.29e-01 1.00e+00h  1
   5  1.8428335e-02 0.00e+00 1.25e-01  -3.0 4.78e-01    -  9.50e-01 1.00e+00H  1
   6  1.0329626e-02 0.00e+00 5.26e-02  -3.3 9.43e-01    -  1.00e+00 1.00e+00h  1
   7  8.1566190e-03 0.00e+00 2.07e-02  -3.4 1.51e+00    -  4.02e-01 1.00e+00h  1
   8  7.1528327e-03 0.00e+00 6.03e-03  -3.4 7.20e+00    -  5.00e-01 2.44e-01h  2
   9  6.3616117e-03 0.00e+00 1.99e-02  -3.4 2.13e+00    -  1.00e+00 1.00e+00H  1
iter    objective    inf_pr   inf_du lg(mu)  ||d||  lg(rg) alpha_du alpha_pr  ls
  10  4.8722024e-03 0.00e+00 4.94e-03  -3.7 1.52e+00    -  9.97e-01 1.00e+00f  1
  11  4.7855105e-03 0.00e+00 2.73e-02  -3.4 1.72e+00    -  1.00e+00 1.00e+00h  1
  12  6.7905992e-03 0.00e+00 1.40e-02  -3.5 8.25e-01    -  1.00e+00 1.00e+00H  1
  13  6.0864622e-03 0.00e+00 1.14e-02  -3.6 1.22e+01    -  9.20e-01 7.94e-02h  3
  14  5.6102637e-03 0.00e+00 7.61e-03  -3.8 4.89e-01    -  9.97e-01 1.00e+00h  1
  15  7.4893278e-03 0.00e+00 1.52e-02  -3.6 1.26e+00    -  1.00e+00 1.00e+00H  1
  16  4.4512190e-03 0.00e+00 2.98e-02  -3.7 3.03e+00    -  1.00e+00 9.77e-01h  1
  17  4.8113622e-03 0.00e+00 1.93e-02  -3.8 5.50e+00    -  3.29e-01 2.78e-01h  2
  18  3.4778775e-03 0.00e+00 1.73e-02  -3.9 7.22e-01    -  1.00e+00 1.00e+00h  1
  19  3.1152881e-03 4.46e+00 5.59e-03  -4.3 1.41e+00    -  1.00e+00 1.00e+00h  1
iter    objective    inf_pr   inf_du lg(mu)  ||d||  lg(rg) alpha_du alpha_pr  ls
  20  2.1502446e-03 0.00e+00 6.80e-03  -3.6 5.20e+02    -  1.00e+00 1.87e-01h  3
  21  3.8650652e-03 0.00e+00 1.01e-02  -2.6 1.02e+02    -  1.00e+00 9.89e-01h  1
  22  3.3101355e-03 0.00e+00 1.28e-03  -3.4 1.04e+00    -  9.61e-01 1.00e+00h  1
  23  3.2228295e-03 0.00e+00 4.15e-03  -5.4 1.30e-01    -  9.99e-01 1.00e+00h  1
  24  2.8778199e-03 0.00e+00 8.47e-03  -6.6 6.08e-01    -  1.00e+00 1.00e+00h  1
  25  2.8572196e-03 0.00e+00 1.74e-02  -4.3 7.21e-01    -  1.00e+00 1.00e+00h  1

Number of Iterations....: 25

                                   (scaled)                 (unscaled)
Objective...............:   2.8572195548267174e-03    2.8572195548267174e-03
Dual infeasibility......:   1.7363128200614964e-02    1.7363128200614964e-02
Constraint violation....:   0.0000000000000000e+00    0.0000000000000000e+00
Variable bound violation:   0.0000000000000000e+00    0.0000000000000000e+00
Complementarity.........:   5.1285210499566028e-05    5.1285210499566028e-05
Overall NLP error.......:   1.7363128200614964e-02    1.7363128200614964e-02


Number of objective function evaluations             = 45
Number of objective gradient evaluations             = 26
Number of equality constraint evaluations            = 0
Number of inequality constraint evaluations          = 45
Number of equality constraint Jacobian evaluations   = 0
Number of inequality constraint Jacobian evaluations = 26
Number of Lagrangian Hessian evaluations             = 0
Total seconds in IPOPT                               = 6.250

EXIT: Maximum Number of Iterations Exceeded.
